<number of tasks>
50

<cycle time>
1000

<order strength>
0.595


<task times>
1 442
2 220
3 109
4 66
5 216
6 479
7 189
8 517
9 173
10 107
11 214
12 48
13 515
14 88
15 517
16 87
17 285
18 22
19 222
20 220
21 453
22 477
23 47
24 344
25 103
26 462
27 53
28 222
29 353
30 191
31 116
32 213
33 235
34 263
35 93
36 110
37 469
38 375
39 543
40 563
41 297
42 346
43 165
44 512
45 153
46 526
47 434
48 106
49 65
50 355

<precedence relations>
1,7
2,6
2,9
2,10
3,8
3,9
4,9
4,10
5,9
6,12
7,14
8,13
9,11
9,14
9,15
10,14
10,15
11,16
12,18
13,19
14,17
14,18
14,19
14,20
15,17
15,19
15,20
16,21
17,22
17,23
18,23
19,44
19,47
19,50
20,23
21,24
22,25
23,26
23,27
24,30
25,28
26,29
27,30
28,31
29,33
30,32
30,33
30,34
30,35
30,36
30,37
31,38
32,39
33,40
33,46
34,40
35,40
35,46
36,40
37,50
38,41
39,42
40,43
40,44
40,45
41,46
42,46
43,47
43,48
43,49
43,50
44,48
45,47
45,48

<end>
